\* EMD *\
Minimize
OBJ: 11.938056 x0_0 + 14.525153 x0_1 + 9.756409 x0_2 + 18.626682 x0_3
 + 9.059353 x0_4 + 9.315948 x0_5 + 9.400008 x0_6 + 12.638605 x0_7
 + 12.830723 x1_0 + 14.795424 x1_1 + 10.700337 x1_2 + 18.244009 x1_3
 + 10.485456 x1_4 + 10.790481 x1_5 + 10.570987 x1_6 + 13.064998 x1_7
 + 18.254902 x2_0 + 17.997269 x2_1 + 18.237553 x2_2 + 19.7453 x2_3
 + 18.98485 x2_4 + 18.689745 x2_5 + 18.844816 x2_6 + 19.239435 x2_7
 + 13.380311 x3_0 + 14.984448 x3_1 + 12.285819 x3_2 + 18.069708 x3_3
 + 12.412451 x3_4 + 12.313284 x3_5 + 12.450864 x3_6 + 14.196352 x3_7
 + 12.272329 x4_0 + 14.576468 x4_1 + 10.320385 x4_2 + 18.391027 x4_3
 + 9.707028 x4_4 + 9.826604 x4_5 + 10.044195 x4_6 + 12.870747 x4_7
 + 12.705557 x5_0 + 14.908433 x5_1 + 10.957014 x5_2 + 18.296967 x5_3
 + 10.696637 x5_4 + 10.675017 x5_5 + 10.613824 x5_6 + 13.231583 x5_7
 + 17.493496 x6_0 + 17.506269 x6_1 + 17.714943 x6_2 + 19.340067 x6_3
 + 18.422569 x6_4 + 17.809784 x6_5 + 17.948967 x6_6 + 18.375872 x6_7
 + 14.382933 x7_0 + 15.493738 x7_1 + 13.42635 x7_2 + 18.549311 x7_3
 + 13.614367 x7_4 + 13.237223 x7_5 + 13.493846 x7_6 + 15.120017 x7_7
Subject To
_C1: x0_0 + x0_1 + x0_2 + x0_3 + x0_4 + x0_5 + x0_6 + x0_7 = 1
_C10: x0_1 + x1_1 + x2_1 + x3_1 + x4_1 + x5_1 + x6_1 + x7_1 = 1
_C11: x0_2 + x1_2 + x2_2 + x3_2 + x4_2 + x5_2 + x6_2 + x7_2 = 1
_C12: x0_3 + x1_3 + x2_3 + x3_3 + x4_3 + x5_3 + x6_3 + x7_3 = 1
_C13: x0_4 + x1_4 + x2_4 + x3_4 + x4_4 + x5_4 + x6_4 + x7_4 = 1
_C14: x0_5 + x1_5 + x2_5 + x3_5 + x4_5 + x5_5 + x6_5 + x7_5 = 1
_C15: x0_6 + x1_6 + x2_6 + x3_6 + x4_6 + x5_6 + x6_6 + x7_6 = 1
_C16: x0_7 + x1_7 + x2_7 + x3_7 + x4_7 + x5_7 + x6_7 + x7_7 = 1
_C2: x1_0 + x1_1 + x1_2 + x1_3 + x1_4 + x1_5 + x1_6 + x1_7 = 1
_C3: x2_0 + x2_1 + x2_2 + x2_3 + x2_4 + x2_5 + x2_6 + x2_7 = 1
_C4: x3_0 + x3_1 + x3_2 + x3_3 + x3_4 + x3_5 + x3_6 + x3_7 = 1
_C5: x4_0 + x4_1 + x4_2 + x4_3 + x4_4 + x4_5 + x4_6 + x4_7 = 1
_C6: x5_0 + x5_1 + x5_2 + x5_3 + x5_4 + x5_5 + x5_6 + x5_7 = 1
_C7: x6_0 + x6_1 + x6_2 + x6_3 + x6_4 + x6_5 + x6_6 + x6_7 = 1
_C8: x7_0 + x7_1 + x7_2 + x7_3 + x7_4 + x7_5 + x7_6 + x7_7 = 1
_C9: x0_0 + x1_0 + x2_0 + x3_0 + x4_0 + x5_0 + x6_0 + x7_0 = 1
End
